\ Model Routes
\ LP format - for model browsing. Use MPS format to capture full model detail.
Maximize
  - 191.7153353028244 R{0,0} + 623.2046552982704 R{0,1}
   + 623.2046552982704 R{0,2} - 249.2301939667805 R{0,3}
   + 234.7650315204939 R{0,4} + 397.2891588355392 R{0,5}
   + 568.2280287393723 R{0,6} + 623.2046552982704 R{0,7}
   + 100.7856989525501 R{0,8} + 227.0117100192371 R{0,9}
   + 449.0745601781551 R{0,10} + 471.5496151523065 R{0,11}
   + 96.79623890446209 R{0,12} + 100.7856989525501 R{0,13}
   - 256.140831891889 R{1,0} - 58.16416216887956 R{1,1}
   + 669.0062570112706 R{1,2} + 705.3436373335674 R{1,3}
   + 218.0275660033432 R{1,4} + 183.670017939371 R{1,5}
   + 832.4460845163753 R{1,6} + 1198.881248318718 R{2,0}
   + 1198.881248318718 R{2,1} - 278.4443928850388 R{2,2}
   - 59.13410337035452 R{2,3} + 602.7748664658451 R{2,4}
   + 1100.505917706273 R{2,5} + 343.8687336675509 R{2,6}
   + 725.2351538442874 R{2,7} + 343.8687336675509 R{2,8}
   + 254.2765511022717 R{2,9} + 675.0053638221349 R{2,10}
   + 817.7507138802766 R{2,11} + 254.2765511022717 R{2,12}
   + 484.606778020975 R{2,13} + 569.8018981918476 R{2,14}
   + 157.4662907254282 R{2,15} + 786.0200774820436 R{2,16}
   - 260.2482995389823 R{3,0} + 967.7221973521264 R{3,1}
   + 1335.663160618656 R{3,2} + 1696.665877888776 R{3,3}
   + 1345.434997085331 R{3,4} + 1055.01817126755 R{3,5}
   + 1410.751521538665 R{3,6} + 1112.243776507833 R{3,7}
   + 1449.785584458327 R{3,8} + 537.2805150276911 R{3,9}
   + 1441.366618479472 R{3,10} + 1647.952335161375 R{3,11}
   + 951.0990496279758 R{3,12} + 1070.352988748916 R{3,13}
   + 1663.705407582513 R{3,14} + 1645.817349219962 R{3,15}
   + 1858.977462034411 R{3,16} - 242.5208875955131 R{4,0}
   + 1055.572474837385 R{4,1} + 1576.196574514046 R{4,2}
   + 1931.337246971942 R{4,3} + 1310.117248724904 R{4,4}
   + 861.1728262109568 R{4,5} + 1681.90426036797 R{4,6}
   + 1507.42128317351 R{4,7} + 1387.855122497651 R{4,8}
   + 1146.629266843765 R{4,9} + 1274.36549094027 R{4,10}
   + 1410.713147295281 R{4,11} + 935.5443021268538 R{4,12}
   + 1007.942911384159 R{4,13} + 1257.767445306145 R{4,14}
   + 1579.117612282921 R{4,15} + 1129.975246079657 R{4,16}
   + 959.4889504639564 R{4,17} - 231.9775664337766 R{5,0}
   + 40.49903117334031 R{5,1} + 364.0546919427258 R{5,2}
   + 121.8846175883787 R{5,3} + 404.9759912974876 R{5,4}
   + 819.8006223066668 R{5,5} + 615.8467903409942 R{5,6}
   + 327.6369955578884 R{5,7} + 551.6605433954483 R{5,8}
   + 187.0958861490501 R{5,9} + 542.4896193974802 R{5,10}
   + 225.8389981731085 R{5,11} - 231.1436095783099 R{6,0}
   + 352.5135528432641 R{6,1} + 1376.623169502638 R{6,2}
   + 1941.768530245978 R{6,3} + 606.2479386460151 R{6,4}
   + 2342.427910815951 R{6,5} + 1820.376248815282 R{6,6}
   + 2247.69275095384 R{6,7} + 784.6807431256998 R{6,8}
   + 954.0151162657585 R{6,9} + 1739.529269311387 R{6,10}
   + 752.0761374269898 R{6,11} + 2188.100253330762 R{6,12}
   + 1727.27605419985 R{6,13} + 1325.4046267443 R{6,14}
   + 784.4063106238401 R{6,15} + 760.9445063831537 R{6,16}
   + 2050.848748398889 R{6,17} + 1842.20810321523 R{6,18}
   + 1765.215548333541 R{6,19}
Subject To
 R00: R{0,0} <= 1
 R01: R{0,1} <= 1
 R02: R{0,2} <= 1
 R03: R{0,3} <= 1
 R04: R{0,4} <= 1
 R05: R{0,5} <= 1
 R06: R{0,6} <= 1
 R07: R{0,7} <= 1
 R08: R{0,8} <= 1
 R09: R{0,9} <= 1
 R010: R{0,10} <= 1
 R011: R{0,11} <= 1
 R012: R{0,12} <= 1
 R013: R{0,13} <= 1
 R014: R{1,0} <= 1
 R015: R{1,1} <= 1
 R016: R{1,2} <= 1
 R017: R{1,3} <= 1
 R018: R{1,4} <= 1
 R019: R{1,5} <= 1
 R020: R{1,6} <= 1
 R021: R{2,0} <= 1
 R022: R{2,1} <= 1
 R023: R{2,2} <= 1
 R024: R{2,3} <= 1
 R025: R{2,4} <= 1
 R026: R{2,5} <= 1
 R027: R{2,6} <= 1
 R028: R{2,7} <= 1
 R029: R{2,8} <= 1
 R030: R{2,9} <= 1
 R031: R{2,10} <= 1
 R032: R{2,11} <= 1
 R033: R{2,12} <= 1
 R034: R{2,13} <= 1
 R035: R{2,14} <= 1
 R036: R{2,15} <= 1
 R037: R{2,16} <= 1
 R038: R{3,0} <= 1
 R039: R{3,1} <= 1
 R040: R{3,2} <= 1
 R041: R{3,3} <= 1
 R042: R{3,4} <= 1
 R043: R{3,5} <= 1
 R044: R{3,6} <= 1
 R045: R{3,7} <= 1
 R046: R{3,8} <= 1
 R047: R{3,9} <= 1
 R048: R{3,10} <= 1
 R049: R{3,11} <= 1
 R050: R{3,12} <= 1
 R051: R{3,13} <= 1
 R052: R{3,14} <= 1
 R053: R{3,15} <= 1
 R054: R{3,16} <= 1
 R055: R{4,0} <= 1
 R056: R{4,1} <= 1
 R057: R{4,2} <= 1
 R058: R{4,3} <= 1
 R059: R{4,4} <= 1
 R060: R{4,5} <= 1
 R061: R{4,6} <= 1
 R062: R{4,7} <= 1
 R063: R{4,8} <= 1
 R064: R{4,9} <= 1
 R065: R{4,10} <= 1
 R066: R{4,11} <= 1
 R067: R{4,12} <= 1
 R068: R{4,13} <= 1
 R069: R{4,14} <= 1
 R070: R{4,15} <= 1
 R071: R{4,16} <= 1
 R072: R{4,17} <= 1
 R073: R{5,0} <= 1
 R074: R{5,1} <= 1
 R075: R{5,2} <= 1
 R076: R{5,3} <= 1
 R077: R{5,4} <= 1
 R078: R{5,5} <= 1
 R079: R{5,6} <= 1
 R080: R{5,7} <= 1
 R081: R{5,8} <= 1
 R082: R{5,9} <= 1
 R083: R{5,10} <= 1
 R084: R{5,11} <= 1
 R085: R{6,0} <= 1
 R086: R{6,1} <= 1
 R087: R{6,2} <= 1
 R088: R{6,3} <= 1
 R089: R{6,4} <= 1
 R090: R{6,5} <= 1
 R091: R{6,6} <= 1
 R092: R{6,7} <= 1
 R093: R{6,8} <= 1
 R094: R{6,9} <= 1
 R095: R{6,10} <= 1
 R096: R{6,11} <= 1
 R097: R{6,12} <= 1
 R098: R{6,13} <= 1
 R099: R{6,14} <= 1
 R0100: R{6,15} <= 1
 R0101: R{6,16} <= 1
 R0102: R{6,17} <= 1
 R0103: R{6,18} <= 1
 R0104: R{6,19} <= 1
 R1_0: R{0,0} + R{0,1} + R{0,2} + R{0,3} + R{0,4} + R{0,5} + R{0,6}
   + R{0,7} + R{0,8} + R{0,9} + R{0,10} + R{0,11} + R{0,12} + R{0,13} <= 1
 R1_1: R{1,0} + R{1,1} + R{1,2} + R{1,3} + R{1,4} + R{1,5} + R{1,6} <= 1
 R1_2: R{2,0} + R{2,1} + R{2,2} + R{2,3} + R{2,4} + R{2,5} + R{2,6}
   + R{2,7} + R{2,8} + R{2,9} + R{2,10} + R{2,11} + R{2,12} + R{2,13}
   + R{2,14} + R{2,15} + R{2,16} <= 1
 R1_3: R{3,0} + R{3,1} + R{3,2} + R{3,3} + R{3,4} + R{3,5} + R{3,6}
   + R{3,7} + R{3,8} + R{3,9} + R{3,10} + R{3,11} + R{3,12} + R{3,13}
   + R{3,14} + R{3,15} + R{3,16} <= 1
 R1_4: R{4,0} + R{4,1} + R{4,2} + R{4,3} + R{4,4} + R{4,5} + R{4,6}
   + R{4,7} + R{4,8} + R{4,9} + R{4,10} + R{4,11} + R{4,12} + R{4,13}
   + R{4,14} + R{4,15} + R{4,16} + R{4,17} <= 1
 R1_5: R{5,0} + R{5,1} + R{5,2} + R{5,3} + R{5,4} + R{5,5} + R{5,6}
   + R{5,7} + R{5,8} + R{5,9} + R{5,10} + R{5,11} <= 1
 R1_6: R{6,0} + R{6,1} + R{6,2} + R{6,3} + R{6,4} + R{6,5} + R{6,6}
   + R{6,7} + R{6,8} + R{6,9} + R{6,10} + R{6,11} + R{6,12} + R{6,13}
   + R{6,14} + R{6,15} + R{6,16} + R{6,17} + R{6,18} + R{6,19} <= 1
 R2_0: 7 R{6,14} <= 7
 R2_1: 10 R{2,9} + 10 R{2,12} + 10 R{3,1} + 10 R{3,2} + 10 R{3,3}
   + 10 R{3,4} + 10 R{3,5} + 10 R{3,6} + 10 R{3,9} + 10 R{3,14}
   + 10 R{3,15} + 10 R{5,5} + 10 R{5,6} + 10 R{5,10} <= 10
 R2_2: <= 0
 R2_3: 4 R{5,1} + 4 R{5,2} + 4 R{5,3} + 4 R{5,4} <= 4
 R2_4: <= 0
 R2_5: 5 R{5,1} + 5 R{5,2} + 5 R{5,3} + 5 R{5,4} + 5 R{5,6} + 5 R{5,7}
   + 5 R{5,8} + 5 R{5,9} + 5 R{5,10} + 5 R{5,11} <= 5
 R2_6: 10 R{5,5} + 10 R{5,7} + 10 R{6,1} + 10 R{6,2} + 10 R{6,3}
   + 10 R{6,4} + 10 R{6,5} + 10 R{6,6} + 10 R{6,7} + 10 R{6,9} + 10 R{6,12}
   + 10 R{6,16} <= 10
 R2_7: <= 0
 R2_8: <= 0
 R2_9: 12 R{4,1} + 12 R{4,2} + 12 R{4,3} + 12 R{4,4} + 12 R{4,5}
   + 12 R{4,6} + 12 R{4,7} + 12 R{4,8} + 12 R{4,9} + 12 R{4,10}
   + 12 R{4,11} + 12 R{4,12} + 12 R{4,14} + 12 R{4,15} + 12 R{4,16}
   + 12 R{4,17} <= 12
 R2_10: 8 R{6,1} + 8 R{6,2} + 8 R{6,3} + 8 R{6,4} + 8 R{6,6} + 8 R{6,7}
   + 8 R{6,8} + 8 R{6,10} + 8 R{6,11} + 8 R{6,15} <= 8
 R2_11: <= 0
 R2_12: <= 0
 R2_13: <= 0
 R2_14: <= 0
 R2_15: 11 R{0,0} + 11 R{0,1} + 11 R{0,2} + 11 R{0,7} + 11 R{4,1}
   + 11 R{4,2} + 11 R{4,3} + 11 R{4,8} + 11 R{4,9} + 11 R{4,11}
   + 11 R{4,12} <= 11
 R2_16: <= 0
 R2_17: <= 0
 R2_18: <= 0
 R2_19: 11 R{2,6} + 11 R{2,8} + 11 R{4,1} + 11 R{4,2} + 11 R{4,3}
   + 11 R{4,4} + 11 R{4,6} + 11 R{4,8} + 11 R{4,9} + 11 R{4,10}
   + 11 R{4,11} + 11 R{4,12} + 11 R{4,13} + 11 R{4,14} + 11 R{4,15}
   + 11 R{4,16} + 11 R{5,10} <= 11
 R2_20: 13 R{0,5} + 13 R{2,5} + 13 R{2,10} + 13 R{2,13} + 13 R{3,1}
   + 13 R{3,2} + 13 R{3,3} + 13 R{3,4} + 13 R{3,6} + 13 R{3,7} + 13 R{3,8}
   + 13 R{3,11} + 13 R{3,14} + 13 R{3,15} + 13 R{4,8} + 13 R{4,15}
   + 13 R{5,2} + 13 R{5,4} + 13 R{5,6} + 13 R{5,8} + 13 R{6,10}
   + 13 R{6,11} <= 13
 R2_21: <= 0
 R2_22: 10 R{4,12} + 10 R{4,13} + 10 R{4,14} + 10 R{4,16} <= 10
 R2_23: 14 R{0,1} + 14 R{0,2} + 14 R{0,6} + 14 R{0,7} + 14 R{0,9}
   + 14 R{2,0} + 14 R{2,1} + 14 R{2,11} + 14 R{4,4} + 14 R{4,6} + 14 R{4,7}
   + 14 R{6,2} + 14 R{6,3} + 14 R{6,5} + 14 R{6,6} + 14 R{6,7} + 14 R{6,12}
   <= 14
 R2_24: 10 R{3,1} + 10 R{3,2} + 10 R{3,3} + 10 R{3,4} + 10 R{3,5}
   + 10 R{3,6} + 10 R{3,7} + 10 R{3,9} + 10 R{3,10} + 10 R{3,11}
   + 10 R{3,12} + 10 R{3,13} + 10 R{3,14} + 10 R{3,15} + 10 R{3,16}
   + 10 R{6,11} + 10 R{6,13} + 10 R{6,14} + 10 R{6,18} + 10 R{6,19} <= 10
 R2_25: 13 R{3,10} + 13 R{3,11} + 13 R{3,13} + 13 R{3,14} + 13 R{3,16}
   + 13 R{4,1} + 13 R{4,2} + 13 R{4,3} + 13 R{4,4} + 13 R{4,5} + 13 R{4,6}
   + 13 R{4,8} + 13 R{4,9} + 13 R{4,10} + 13 R{4,11} + 13 R{4,15}
   + 13 R{4,17} + 13 R{6,13} + 13 R{6,14} + 13 R{6,18} + 13 R{6,19} <= 13
 R2_26: 6 R{1,1} + 6 R{1,2} + 6 R{1,3} + 6 R{1,4} + 6 R{1,5} + 6 R{1,6}
   + 6 R{2,15} + 6 R{3,9} + 6 R{3,11} + 6 R{3,12} + 6 R{3,16} <= 6
 R2_27: 5 R{2,10} + 5 R{3,4} + 5 R{3,6} + 5 R{3,10} + 5 R{3,11} + 5 R{3,12}
   + 5 R{3,13} + 5 R{3,14} + 5 R{3,15} + 5 R{3,16} + 5 R{5,5} + 5 R{6,7}
   + 5 R{6,8} + 5 R{6,9} + 5 R{6,15} + 5 R{6,16} <= 5
 R2_28: <= 0
 R2_29: <= 0
 R2_30: <= 0
 R2_31: 6 R{2,13} + 6 R{5,5} + 6 R{6,1} + 6 R{6,2} + 6 R{6,4} + 6 R{6,9}
   + 6 R{6,16} <= 6
 R2_32: 7 R{0,4} + 7 R{0,5} + 7 R{2,16} + 7 R{5,8} + 7 R{5,11} <= 7
 R2_33: 12 R{3,12} + 12 R{3,15} + 12 R{6,15} + 12 R{6,16} <= 12
 R2_34: 5 R{3,8} + 5 R{6,12} <= 5
 R2_35: <= 0
 R2_36: <= 0
 R2_37: 5 R{3,10} + 5 R{3,13} + 5 R{5,1} + 5 R{5,3} + 5 R{5,7} + 5 R{5,9}
   + 5 R{5,11} <= 5
 R2_38: <= 0
 R2_39: <= 0
 R2_40: 15 R{2,3} + 15 R{2,4} + 15 R{2,5} + 15 R{2,6} + 15 R{2,8}
   + 15 R{2,9} + 15 R{2,12} + 15 R{2,13} + 15 R{2,15} + 15 R{2,16}
   + 15 R{5,9} <= 15
 R2_41: 5 R{3,2} + 5 R{3,3} + 5 R{3,5} + 5 R{3,7} + 5 R{3,8} + 5 R{4,7}
   + 5 R{6,4} + 5 R{6,9} + 5 R{6,13} + 5 R{6,14} + 5 R{6,18} + 5 R{6,19}
   <= 5
 R2_42: 4 R{2,3} + 4 R{2,4} + 4 R{2,5} + 4 R{2,6} + 4 R{2,8} + 4 R{2,9}
   + 4 R{2,10} + 4 R{2,12} + 4 R{2,15} + 4 R{2,16} <= 4
 R2_43: <= 0
 R2_44: <= 0
 R2_45: <= 0
 R2_46: 9 R{0,10} + 9 R{0,11} + 9 R{0,12} + 9 R{4,5} + 9 R{4,10}
   + 9 R{4,17} + 9 R{6,17} <= 9
 R2_47: 7 R{1,1} + 7 R{1,2} + 7 R{1,3} + 7 R{1,4} + 7 R{1,5} <= 7
 R2_48: 4 R{4,1} + 4 R{4,2} + 4 R{4,3} + 4 R{4,6} + 4 R{4,7} + 4 R{4,8}
   + 4 R{4,9} + 4 R{4,10} + 4 R{4,11} + 4 R{4,12} + 4 R{4,13} + 4 R{4,14}
   + 4 R{4,15} + 4 R{4,16} + 4 R{4,17} <= 4
 R2_49: <= 0
 R2_50: <= 0
 R2_51: 11 R{1,5} <= 11
 R2_52: <= 0
 R2_53: 13 R{4,1} + 13 R{4,2} + 13 R{4,4} + 13 R{4,5} + 13 R{4,8}
   + 13 R{4,10} + 13 R{4,12} + 13 R{4,13} + 13 R{4,17} <= 13
 R2_54: 9 R{3,1} + 9 R{3,2} + 9 R{3,3} + 9 R{3,5} + 9 R{3,7} + 9 R{3,8}
   + 9 R{3,9} <= 9
 R2_55: <= 0
 R2_56: 6 R{2,0} + 6 R{2,1} + 6 R{2,7} + 6 R{2,11} + 6 R{3,10} + 6 R{3,11}
   + 6 R{3,16} + 6 R{4,3} + 6 R{4,6} + 6 R{4,7} + 6 R{4,11} + 6 R{4,14}
   + 6 R{6,2} + 6 R{6,3} + 6 R{6,5} + 6 R{6,6} + 6 R{6,7} + 6 R{6,8}
   + 6 R{6,10} + 6 R{6,13} + 6 R{6,15} + 6 R{6,17} + 6 R{6,18} + 6 R{6,19}
   <= 6
 R2_57: <= 0
 R2_58: <= 0
 R2_59: 10 R{3,6} + 10 R{3,14} + 10 R{3,15} + 10 R{4,9} + 10 R{4,15}
   + 10 R{4,16} <= 10
 R2_60: <= 0
 R2_61: 9 R{2,11} + 9 R{2,14} + 9 R{4,13} + 9 R{6,13} + 9 R{6,14} <= 9
 R2_62: <= 0
 R2_63: <= 0
 R2_64: <= 0
 R2_65: 5 R{2,0} + 5 R{2,1} + 5 R{2,7} + 5 R{2,14} + 5 R{6,1} + 5 R{6,2}
   + 5 R{6,3} + 5 R{6,5} + 5 R{6,6} + 5 R{6,7} + 5 R{6,10} + 5 R{6,11}
   + 5 R{6,12} + 5 R{6,13} + 5 R{6,14} + 5 R{6,17} + 5 R{6,18} <= 5
 R2_66: 7 R{3,12} <= 7
 R2_67: 3 R{0,1} + 3 R{0,2} + 3 R{0,6} + 3 R{0,7} + 3 R{0,8} + 3 R{0,10}
   + 3 R{0,11} + 3 R{0,13} + 3 R{2,0} + 3 R{2,1} + 3 R{2,7} + 3 R{2,14}
   + 3 R{6,5} + 3 R{6,12} + 3 R{6,17} + 3 R{6,18} <= 3
 R2_68: 6 R{1,6} + 6 R{4,1} + 6 R{4,4} + 6 R{4,5} + 6 R{4,11} <= 6
 R2_69: 7 R{1,4} + 7 R{4,1} + 7 R{4,2} + 7 R{4,3} + 7 R{4,4} + 7 R{4,5}
   + 7 R{4,6} + 7 R{4,7} + 7 R{4,8} + 7 R{4,9} + 7 R{4,10} + 7 R{4,11}
   + 7 R{4,12} + 7 R{4,13} + 7 R{4,14} + 7 R{4,15} + 7 R{4,16} + 7 R{4,17}
   + 7 R{6,13} + 7 R{6,18} <= 7
 R2_70: 11 R{6,1} + 11 R{6,2} + 11 R{6,3} + 11 R{6,4} + 11 R{6,5}
   + 11 R{6,6} + 11 R{6,7} + 11 R{6,8} + 11 R{6,9} + 11 R{6,10}
   + 11 R{6,11} + 11 R{6,17} <= 11
 R2_71: 7 R{3,1} + 7 R{3,2} + 7 R{3,3} + 7 R{3,4} + 7 R{3,7} + 7 R{3,8}
   + 7 R{6,2} + 7 R{6,3} + 7 R{6,5} + 7 R{6,8} + 7 R{6,10} + 7 R{6,12}
   + 7 R{6,17} <= 7
 R2_72: <= 0
 R2_73: <= 0
 R2_74: 5 R{5,1} + 5 R{5,2} + 5 R{5,3} + 5 R{5,4} + 5 R{5,6} + 5 R{5,7}
   + 5 R{5,8} + 5 R{5,9} + 5 R{5,10} + 5 R{5,11} <= 5
 R2_75: 8 R{6,1} + 8 R{6,2} + 8 R{6,3} + 8 R{6,4} + 8 R{6,5} + 8 R{6,6}
   + 8 R{6,7} + 8 R{6,8} + 8 R{6,9} + 8 R{6,10} + 8 R{6,11} + 8 R{6,12}
   + 8 R{6,13} + 8 R{6,14} + 8 R{6,17} + 8 R{6,18} + 8 R{6,19} <= 8
 R2_76: 12 R{0,4} + 12 R{3,3} + 12 R{3,5} + 12 R{3,8} + 12 R{3,10}
   + 12 R{3,13} <= 12
 R2_77: 7 R{1,2} + 7 R{1,3} + 7 R{1,6} + 7 R{2,4} + 7 R{2,5} + 7 R{2,16}
   + 7 R{3,16} + 7 R{4,2} + 7 R{4,3} + 7 R{6,3} + 7 R{6,5} + 7 R{6,6}
   + 7 R{6,7} + 7 R{6,10} + 7 R{6,12} + 7 R{6,17} + 7 R{6,19} <= 7
Bounds
End
